181
0 109 83 86 124 159 103 51 68 79 
101 1 77 113 84 152 121 78 142 25 
80 115 100 93 14 9 3 43 151 166 
88 46 48 82 112 45 26 61 123 136 
133 126 141 107 31 105 149 2 158 76 
119 169 140 172 75 165 144 42 54 102 
67 104 11 18 52 146 157 65 87 170 
53 153 15 118 49 180 98 71 89 173 
85 161 168 20 116 33 128 64 137 62 
5 96 162 57 70 37 135 74 13 114 
148 171 41 175 134 106 91 156 55 120 
19 56 58 4 95 139 90 63 97 164 
154 36 39 117 167 129 34 122 110 179 
17 50 38 131 127 12 138 30 143 147 
22 125 145 7 8 73 35 69 47 60 
6 94 29 177 178 130 176 108 155 16 
24 44 23 40 92 111 99 21 27 59 
150 81 32 72 174 160 66 10 163 132 
28 
